# Objective value = 38.0
xobj 38.0
x0_r1 -0.0
x1_r1 0.0
x2_r1 0.0
x3_r1 -0.0
y0_r1 -0.0
y1_r1 -0.0
y2_r1 -0.0
y3_r1 0.0
SH0_r1 -0.0
SL0_r1 -0.0
x4_r1 -0.0
x5_r1 -0.0
x6_r1 0.0
x7_r1 -0.0
y4_r1 -0.0
y5_r1 -0.0
y6_r1 -0.0
y7_r1 0.0
SH1_r1 -0.0
SL1_r1 0.0
x8_r1 0.0
x9_r1 -0.0
x10_r1 -0.0
x11_r1 -0.0
y8_r1 -0.0
y9_r1 -0.0
y10_r1 -0.0
y11_r1 -0.0
SH2_r1 -0.0
SL2_r1 -0.0
x12_r1 1.0
x13_r1 1.0
x14_r1 1.0
x15_r1 1.0
y12_r1 0.0
y13_r1 -2.964615315390051e-21
y14_r1 -0.0
y15_r1 0.9999999999999998
SH3_r1 1.0
SL3_r1 -0.0
x16_r1 -0.0
x17_r1 -0.0
x18_r1 -0.0
x19_r1 -0.0
y16_r1 -0.0
y17_r1 4.995969729495314e-16
y18_r1 -0.0
y19_r1 2.77553638573921e-16
SH4_r1 3.053092141895499e-16
SL4_r1 -0.0
x20_r1 -0.0
x21_r1 -0.0
x22_r1 -0.0
x23_r1 -2.775631676945776e-17
y20_r1 -0.0
y21_r1 -0.0
y22_r1 -0.0
y23_r1 -3.469510479424658e-17
SH5_r1 -2.7756210890339354e-17
SL5_r1 -0.0
x24_r1 -0.0
x25_r1 -0.0
x26_r1 0.0
x27_r1 -0.0
y24_r1 -0.0
y25_r1 -0.0
y26_r1 -0.0
y27_r1 -0.0
SH6_r1 -0.0
SL6_r1 -0.0
x28_r1 -0.0
x29_r1 -0.0
x30_r1 0.0
x31_r1 -0.0
y28_r1 -0.0
y29_r1 0.0
y30_r1 -0.0
y31_r1 -0.0
SH7_r1 0.0
SL7_r1 -0.0
x32_r1 -0.0
x33_r1 -0.0
x34_r1 -0.0
x35_r1 -0.0
y32_r1 1.7347142115539465e-17
y33_r1 5.5510833593902607e-17
y34_r1 -0.0
y35_r1 0.0
SH8_r1 1.864817810507717e-17
SL8_r1 -0.0
x36_r1 -0.0
x37_r1 -0.0
x38_r1 0.0
x39_r1 -0.0
y36_r1 -0.0
y37_r1 -0.0
y38_r1 -0.0
y39_r1 0.0
SH9_r1 0.0
SL9_r1 -0.0
x40_r1 -0.0
x41_r1 -0.0
x42_r1 -0.0
x43_r1 -0.0
y40_r1 -0.0
y41_r1 -0.0
y42_r1 -0.0
y43_r1 -0.0
SH10_r1 -0.0
SL10_r1 -0.0
x44_r1 -0.0
x45_r1 0.0
x46_r1 -0.0
x47_r1 -0.0
y44_r1 -0.0
y45_r1 0.0
y46_r1 -0.0
y47_r1 -0.0
SH11_r1 0.0
SL11_r1 -0.0
x48_r1 0.0
x49_r1 0.0
x50_r1 0.0
x51_r1 0.0
y48_r1 -0.0
y49_r1 -0.0
y50_r1 -0.0
y51_r1 -0.0
SH12_r1 0.0
SL12_r1 -0.0
x52_r1 -0.0
x53_r1 5.551162768729066e-17
x54_r1 1.0408404383331887e-16
x55_r1 -0.0
y52_r1 -0.0
y53_r1 4.857291907184064e-17
y54_r1 -0.0
y55_r1 2.3592408679874027e-16
SH13_r1 1.2490093730327737e-16
SL13_r1 -0.0
x56_r1 -0.0
x57_r1 1.4267833906879751e-16
x58_r1 -0.0
x59_r1 -0.0
y56_r1 -2.8535667813759503e-16
y57_r1 -0.0
y58_r1 0.0
y59_r1 0.0
SH14_r1 -0.0
SL14_r1 -0.0
x60_r1 1.0
x61_r1 1.0
x62_r1 -0.0
x63_r1 1.0
y60_r1 0.0
y61_r1 0.0
y62_r1 0.0
y63_r1 1.0
SH15_r1 1.0
SL15_r1 1.0
y0_r2 -0.0
y1_r2 0.0
y2_r2 -0.0
y3_r2 -0.0
SH0_r2 -0.0
SL0_r2 -0.0
y4_r2 -0.0
y5_r2 -0.0
y6_r2 -0.0
y7_r2 -0.0
SH1_r2 0.0
SL1_r2 0.0
y8_r2 -0.0
y9_r2 -0.0
y10_r2 -0.0
y11_r2 -2.8189107592112856e-18
SH2_r2 -2.8189107592112856e-18
SL2_r2 2.8189107592112856e-18
y12_r2 -0.0
y13_r2 -0.0
y14_r2 -2.072955974088515e-16
y15_r2 -0.0
SH3_r2 -1.431120315183203e-17
SL3_r2 -0.0
y16_r2 -0.0
y17_r2 0.0
y18_r2 -0.0
y19_r2 -0.0
SH4_r2 -0.0
SL4_r2 -0.0
y20_r2 -0.0
y21_r2 -0.0
y22_r2 2.7755406209039463e-16
y23_r2 -0.0
SH5_r2 2.497984864747657e-16
SL5_r2 1.1102124367133159e-16
y24_r2 -0.0
y25_r2 -0.0
y26_r2 6.938258629196788e-18
y27_r2 3.8163413545677324e-17
SH6_r2 3.989813702165413e-17
SL6_r2 -0.0
y28_r2 -0.0
y29_r2 -0.0
y30_r2 -0.0
y31_r2 -0.0
SH7_r2 -0.0
SL7_r2 -0.0
y32_r2 -0.0
y33_r2 -0.0
y34_r2 -0.0
y35_r2 0.0
SH8_r2 0.0
SL8_r2 -0.0
y36_r2 -0.0
y37_r2 -0.0
y38_r2 0.0
y39_r2 0.0
SH9_r2 -0.0
SL9_r2 -0.0
y40_r2 -0.0
y41_r2 -0.0
y42_r2 0.0
y43_r2 -0.0
SH10_r2 0.0
SL10_r2 -0.0
y44_r2 -0.0
y45_r2 -0.0
y46_r2 0.0
y47_r2 -0.0
SH11_r2 0.0
SL11_r2 -0.0
y48_r2 0.9999999999999998
y49_r2 -0.0
y50_r2 0.0
y51_r2 0.9999999999999998
SH12_r2 0.9999999999999998
SL12_r2 -0.0
y52_r2 2.7755279154097375e-16
y53_r2 -0.0
y54_r2 1.665321831443526e-16
y55_r2 -0.0
SH13_r2 1.665321831443526e-16
SL13_r2 1.734739357844568e-17
y56_r2 -0.0
y57_r2 -0.0
y58_r2 0.0
y59_r2 -0.0
SH14_r2 0.0
SL14_r2 0.0
y60_r2 1.0
y61_r2 -0.0
y62_r2 4.718502911798487e-16
y63_r2 0.9999999999999998
SH15_r2 1.0
SL15_r2 1.665292185290372e-16
y0_r3 -0.0
y1_r3 -0.0
y2_r3 -0.0
y3_r3 -0.0
SH0_r3 -0.0
SL0_r3 -0.0
y4_r3 -0.0
y5_r3 -0.0
y6_r3 -0.0
y7_r3 -0.0
SH1_r3 -0.0
SL1_r3 -0.0
y8_r3 -0.0
y9_r3 -0.0
y10_r3 -0.0
y11_r3 -0.0
SH2_r3 -0.0
SL2_r3 -0.0
y12_r3 0.0
y13_r3 1.0
y14_r3 -0.0
y15_r3 -0.0
SH3_r3 1.0
SL3_r3 -0.0
y16_r3 -0.0
y17_r3 -0.0
y18_r3 -0.0
y19_r3 -0.0
SH4_r3 -0.0
SL4_r3 -0.0
y20_r3 -0.0
y21_r3 -0.0
y22_r3 -0.0
y23_r3 -0.0
SH5_r3 -0.0
SL5_r3 -0.0
y24_r3 -0.0
y25_r3 -0.0
y26_r3 -0.0
y27_r3 -0.0
SH6_r3 0.0
SL6_r3 -0.0
y28_r3 -0.0
y29_r3 -0.0
y30_r3 -0.0
y31_r3 -0.0
SH7_r3 0.0
SL7_r3 -0.0
y32_r3 -2.067802877100326e-15
y33_r3 -1.2143067508211202e-15
y34_r3 -5.776696408242956e-16
y35_r3 4.1633098725647353e-17
SH8_r3 -7.806257230082408e-16
SL8_r3 -0.0
y36_r3 2.497997570241866e-16
y37_r3 3.053092141895499e-16
y38_r3 -0.0
y39_r3 2.497980629582921e-16
SH9_r3 2.77553638573921e-16
SL9_r3 -0.0
y40_r3 0.0
y41_r3 0.0
y42_r3 -0.0
y43_r3 0.0
SH10_r3 0.0
SL10_r3 -0.0
y44_r3 4.440934450147989e-16
y45_r3 6.106260516756251e-16
y46_r3 -0.0
y47_r3 5.5510621835665793e-17
SH11_r3 6.106260516756251e-16
SL11_r3 3.885831408164883e-16
y48_r3 -5.421010862427522e-19
y49_r3 -1.0841723939834525e-18
y50_r3 -0.0
y51_r3 -0.0
SH12_r3 -1.0841723939834525e-18
SL12_r3 -2.385171987574205e-18
y52_r3 4.8192956139006245e-17
y53_r3 4.163286049763094e-17
y54_r3 -0.0
y55_r3 2.428599631477729e-17
SH13_r3 3.989813702165413e-17
SL13_r3 -0.0
y56_r3 0.0
y57_r3 0.0
y58_r3 -0.0
y59_r3 -0.0
SH14_r3 0.0
SL14_r3 0.0
y60_r3 -7.914408679806328e-18
y61_r3 1.0
y62_r3 -0.0
y63_r3 -0.0
SH15_r3 0.9999999999999998
SL15_r3 -0.0
y0_r4 0.0
y1_r4 0.0
y2_r4 -0.0
y3_r4 0.0
SH0_r4 -0.0
SL0_r4 -0.0
y4_r4 -0.0
y5_r4 -0.0
y6_r4 -0.0
y7_r4 -0.0
SH1_r4 0.0
SL1_r4 -0.0
y8_r4 -2.3242423741790834e-18
y9_r4 2.7755406209039463e-16
y10_r4 0.0
y11_r4 -0.0
SH2_r4 4.440934450147989e-16
SL2_r4 -0.0
y12_r4 2.4905984210510153e-17
y13_r4 -0.0
y14_r4 -0.0
y15_r4 -0.0
SH3_r4 -7.58924315383112e-18
SL3_r4 -0.0
y16_r4 0.9999999999999998
y17_r4 5.550708547311101e-16
y18_r4 2.6365763955774058e-16
y19_r4 1.0
SH4_r4 1.0
SL4_r4 -0.0
y20_r4 -0.0
y21_r4 -0.0
y22_r4 -0.0
y23_r4 -0.0
SH5_r4 -0.0
SL5_r4 -0.0
y24_r4 -1.1102230246251565e-16
y25_r4 -4.440798924876428e-16
y26_r4 -6.661380499398302e-16
y27_r4 -1.1102230246251565e-16
SH6_r4 -1.110214554295684e-16
SL6_r4 -0.0
y28_r4 0.9999999999999999
y29_r4 1.1101552619893762e-15
y30_r4 -5.082197683525802e-21
y31_r4 1.0
SH7_r4 1.0
SL7_r4 -0.0
y32_r4 0.0
y33_r4 0.0
y34_r4 -0.0
y35_r4 0.0
SH8_r4 0.0
SL8_r4 -0.0
y36_r4 0.0
y37_r4 0.0
y38_r4 0.0
y39_r4 0.0
SH9_r4 -0.0
SL9_r4 -0.0
y40_r4 -6.0716976020413354e-18
y41_r4 5.724653115776876e-16
y42_r4 -0.0
y43_r4 1.2593150177612248e-16
SH10_r4 1.2593150177612248e-16
SL10_r4 -0.0
y44_r4 -2.775634323923736e-17
y45_r4 -3.3307580123349313e-16
y46_r4 -0.0
y47_r4 -0.0
SH11_r4 -1.1102590235254148e-16
SL11_r4 -1.1102590235254148e-16
y48_r4 -0.0
y49_r4 -0.0
y50_r4 -0.0
y51_r4 -0.0
SH12_r4 -0.0
SL12_r4 -0.0
y52_r4 0.0
y53_r4 -0.0
y54_r4 -0.0
y55_r4 -0.0
SH13_r4 -0.0
SL13_r4 -0.0
y56_r4 -3.4694681277772955e-17
y57_r4 1.9428775875998151e-16
y58_r4 0.0
y59_r4 -0.0
SH14_r4 5.5510621835665793e-17
SL14_r4 -0.0
y60_r4 2.0816469953484872e-17
y61_r4 4.1633098725647353e-17
y62_r4 -0.0
y63_r4 -0.0
SH15_r4 1.7347102410870062e-17
SL15_r4 2.2551325778359687e-17
y0_r5 2.258174182986872e-17
y1_r5 -2.5292229063109006e-18
y2_r5 -0.0
y3_r5 0.0
SH0_r5 1.043876161195961e-17
SL0_r5 -0.0
y4_r5 2.7755152099155286e-16
y5_r5 1.0
y6_r5 -0.0
y7_r5 1.110121380671486e-16
SH1_r5 1.0
SL1_r5 -0.0
y8_r5 -3.122602841920739e-17
y9_r5 -1.7347790625139707e-17
y10_r5 -0.0
y11_r5 -0.0
SH2_r5 -2.4286843347724545e-17
SL2_r5 -5.637910853928727e-18
y12_r5 -3.4694681277772955e-17
y13_r5 -6.245020395384267e-17
y14_r5 -0.0
y15_r5 -0.0
SH3_r5 -3.4694681277772955e-17
SL3_r5 -1.7347314169106876e-17
y16_r5 -0.0
y17_r5 2.7755406209039463e-16
y18_r5 2.497984864747657e-16
y19_r5 -0.0
SH4_r5 2.7755406209039463e-16
SL4_r5 2.0816512305132234e-16
y20_r5 -0.0
y21_r5 1.443288237946809e-15
y22_r5 4.995597034998522e-16
y23_r5 -0.0
SH5_r5 4.995597034998522e-16
SL5_r5 -4.441434199586869e-16
y24_r5 -0.0
y25_r5 2.2204206382618955e-16
y26_r5 2.497984864747657e-16
y27_r5 0.0
SH6_r5 2.220429108591368e-16
SL6_r5 5.585878943467875e-16
y28_r5 -0.0
y29_r5 1.942875470017447e-16
y30_r5 2.4979890999123934e-16
y31_r5 0.0
SH7_r5 2.4979890999123934e-16
SL7_r5 1.942875470017447e-16
y32_r5 -0.0
y33_r5 0.0
y34_r5 0.0
y35_r5 -0.0
SH8_r5 0.0
SL8_r5 0.0
y36_r5 1.665292185290372e-16
y37_r5 -0.0
y38_r5 -1.6654700622092955e-16
y39_r5 2.2202766426608622e-16
SH9_r5 -1.6654700622092955e-16
SL9_r5 -1.1102230246251565e-15
y40_r5 -0.0
y41_r5 0.0
y42_r5 0.0
y43_r5 -0.0
SH10_r5 -0.0
SL10_r5 -0.0
y44_r5 0.0
y45_r5 0.0
y46_r5 0.0
y47_r5 -0.0
SH11_r5 0.0
SL11_r5 0.0
y48_r5 -0.0
y49_r5 0.0
y50_r5 -0.0
y51_r5 -0.0
SH12_r5 -0.0
SL12_r5 -0.0
y52_r5 2.497980629582921e-16
y53_r5 1.0
y54_r5 4.995732560270083e-16
y55_r5 -0.0
SH13_r5 1.0
SL13_r5 -0.0
y56_r5 3.77738280207771e-16
y57_r5 -0.0
y58_r5 -0.0
y59_r5 -0.0
SH14_r5 8.814622723002887e-17
SL14_r5 -0.0
y60_r5 -0.0
y61_r5 -0.0
y62_r5 -0.0
y63_r5 -0.0
SH15_r5 -0.0
SL15_r5 -0.0
y0_r6 -0.0
y1_r6 5.551064301148947e-16
y2_r6 -0.0
y3_r6 1.665292185290372e-16
SH0_r6 1.665292185290372e-16
SL0_r6 -1.6306315970887261e-16
y4_r6 -0.0
y5_r6 0.0
y6_r6 -0.0
y7_r6 -0.0
SH1_r6 -0.0
SL1_r6 -0.0
y8_r6 -0.0
y9_r6 1.665292185290372e-16
y10_r6 -0.0
y11_r6 1.665292185290372e-16
SH2_r6 1.665292185290372e-16
SL2_r6 -0.0
y12_r6 -0.0
y13_r6 5.828666644117336e-16
y14_r6 -0.0
y15_r6 1.1101976136367389e-16
SH3_r6 4.718447854656915e-16
SL3_r6 -0.0
y16_r6 -8.257283745649602e-16
y17_r6 1.0000000000000002
y18_r6 0.0
y19_r6 1.0
SH4_r6 1.0
SL4_r6 -0.0
y20_r6 1.443288237946809e-15
y21_r6 1.4433136489352266e-15
y22_r6 -0.0
y23_r6 1.22121822203336e-15
SH5_r6 1.443288237946809e-15
SL5_r6 -0.0
y24_r6 0.0
y25_r6 0.0
y26_r6 -0.0
y27_r6 -0.0
SH6_r6 0.0
SL6_r6 0.0
y28_r6 -2.2690183065776637e-15
y29_r6 1.0000000000000002
y30_r6 0.0
y31_r6 1.0
SH7_r6 1.0
SL7_r6 -1.9298862197713023e-16
y32_r6 -0.0
y33_r6 -0.0
y34_r6 -0.0
y35_r6 -0.0
SH8_r6 -0.0
SL8_r6 -0.0
y36_r6 -0.0
y37_r6 5.550844072582661e-16
y38_r6 1.0269291927239577e-15
y39_r6 -0.0
SH9_r6 1.0269156401968016e-15
SL9_r6 5.550708547311101e-16
y40_r6 -0.0
y41_r6 -1.6655378248450758e-16
y42_r6 -1.6655378248450758e-16
y43_r6 -0.0
SH10_r6 -1.6655378248450758e-16
SL10_r6 -1.6655378248450758e-16
y44_r6 -0.0
y45_r6 4.995732560270083e-16
y46_r6 5.550844072582661e-16
y47_r6 -0.0
SH11_r6 4.995732560270083e-16
SL11_r6 4.995732560270083e-16
y48_r6 5.5500986835890775e-17
y49_r6 0.0
y50_r6 -1.0164395367051604e-20
y51_r6 -0.0
SH12_r6 5.5500986835890775e-17
SL12_r6 -1.0164395367051604e-20
y52_r6 0.0
y53_r6 0.0
y54_r6 -0.0
y55_r6 -0.0
SH13_r6 0.0
SL13_r6 0.0
y56_r6 2.2202766426608622e-16
y57_r6 0.0
y58_r6 2.2203105239787524e-16
y59_r6 -0.0
SH14_r6 2.2202766426608622e-16
SL14_r6 2.220242761342972e-16
y60_r6 0.0
y61_r6 -0.0
y62_r6 0.0
y63_r6 -0.0
SH15_r6 -0.0
SL15_r6 -0.0
y0_r7 -0.0
y1_r7 -0.0
y2_r7 -0.0
y3_r7 -0.0
SH0_r7 -0.0
SL0_r7 -0.0
y4_r7 -0.0
y5_r7 3.330533548603909e-16
y6_r7 -8.326672684688674e-16
y7_r7 0.0
SH1_r7 -8.326672684688674e-16
SL1_r7 -2.4771851236948805e-15
y8_r7 -0.0
y9_r7 -0.0
y10_r7 -0.0
y11_r7 -0.0
SH2_r7 -0.0
SL2_r7 -0.0
y12_r7 0.0
y13_r7 3.330533548603909e-16
y14_r7 2.2202766426608622e-16
y15_r7 -0.0
SH3_r7 2.2203105239787524e-16
SL3_r7 2.2203105239787524e-16
y16_r7 -1.1102653762725193e-16
y17_r7 5.551064301148947e-16
y18_r7 -0.0
y19_r7 -0.0
SH4_r7 5.55107277147842e-16
SL4_r7 -5.551453936304684e-17
y20_r7 -1.6653938292440426e-16
y21_r7 1.0000000000000004
y22_r7 -0.0
y23_r7 0.0
SH5_r7 1.0000000000000002
SL5_r7 -0.0
y24_r7 -1.6653938292440426e-16
y25_r7 6.938622853364107e-16
y26_r7 -0.0
y27_r7 -0.0
SH6_r7 5.550844072582661e-16
SL6_r7 8.881919722272813e-16
y28_r7 0.0
y29_r7 0.0
y30_r7 -0.0
y31_r7 -0.0
SH7_r7 0.0
SL7_r7 -0.0
y32_r7 -0.0
y33_r7 -0.0
y34_r7 -0.0
y35_r7 -0.0
SH8_r7 -0.0
SL8_r7 -0.0
y36_r7 -0.0
y37_r7 -0.0
y38_r7 -0.0
y39_r7 -0.0
SH9_r7 -0.0
SL9_r7 -0.0
y40_r7 3.3294493464314234e-16
y41_r7 -1.4710997177369567e-15
y42_r7 -1.562335330551612e-16
y43_r7 1.6651176965032377e-15
SH10_r7 -1.5628774316378546e-16
SL10_r7 -1.4710997177369567e-15
y44_r7 1.2488653774317404e-16
y45_r7 2.2201749987071917e-16
y46_r7 5.550437496767979e-16
y47_r7 5.550437496767979e-16
SH11_r7 5.550301971496419e-16
SL11_r7 3.4691081387747125e-16
y48_r7 -0.0
y49_r7 3.3305928409102167e-16
y50_r7 -0.0
y51_r7 -0.0
SH12_r7 1.665292185290372e-16
SL12_r7 5.550966892360013e-17
y52_r7 -0.0
y53_r7 0.9999999999999988
y54_r7 -3.9898639947466563e-17
y55_r7 0.0
SH13_r7 1.0
SL13_r7 -0.0
y56_r7 -0.0
y57_r7 -0.0
y58_r7 -0.0
y59_r7 -0.0
SH14_r7 -0.0
SL14_r7 -0.0
y60_r7 -0.0
y61_r7 -0.0
y62_r7 -0.0
y63_r7 -0.0
SH15_r7 -0.0
SL15_r7 -0.0
y0_r8 -0.0
y1_r8 -0.0
y2_r8 -0.0
y3_r8 -0.0
SH0_r8 0.0
SL0_r8 -0.0
y4_r8 -0.0
y5_r8 -2.2204968712271483e-16
y6_r8 -0.0
y7_r8 -0.0
SH1_r8 -1.6653938292440426e-16
SL1_r8 -5.551326881362596e-17
y8_r8 0.0
y9_r8 1.4218803272379038e-16
y10_r8 0.0
y11_r8 1.7340458496190037e-16
SH2_r8 3.260060407392351e-16
SL2_r8 1.4391936806797817e-16
y12_r8 0.0
y13_r8 0.0
y14_r8 -0.0
y15_r8 -0.0
SH3_r8 -0.0
SL3_r8 -0.0
y16_r8 4.440765043558538e-16
y17_r8 3.330533548603909e-16
y18_r8 -0.0
y19_r8 -0.0
SH4_r8 4.4407565732290655e-16
SL4_r8 -0.0
y20_r8 1.942890293094024e-16
y21_r8 0.9999999999999999
y22_r8 0.0
y23_r8 0.9999999999999999
SH5_r8 1.0
SL5_r8 -3.3306521332165245e-16
y24_r8 2.774879935205088e-17
y25_r8 8.881784197001252e-16
y26_r8 0.0
y27_r8 1.3322676295501878e-15
SH6_r8 -0.0
SL6_r8 -1.1102230246251565e-15
y28_r8 -5.551115123125783e-17
y29_r8 0.9999999999999993
y30_r8 -0.0
y31_r8 1.0
SH7_r8 0.9999999999999993
SL7_r8 -0.0
y32_r8 -7.424616477180734e-16
y33_r8 -8.326672684688674e-16
y34_r8 0.0
y35_r8 -3.400058012914542e-16
SH8_r8 -8.326672684688674e-16
SL8_r8 -1.0408340855860843e-15
y36_r8 -0.0
y37_r8 0.0
y38_r8 0.0
y39_r8 -0.0
SH9_r8 0.0
SL9_r8 -0.0
y40_r8 -2.8449465006019636e-16
y41_r8 -6.071532165918825e-17
y42_r8 -0.0
y43_r8 -3.400058012914542e-16
SH10_r8 -7.45931094670027e-17
SL10_r8 -9.752398541507112e-17
y44_r8 -2.1337098754514727e-16
y45_r8 -2.1250362580715887e-16
y46_r8 -0.0
y47_r8 -2.445960101127298e-16
SH11_r8 -2.1250362580715887e-16
SL11_r8 -0.0
y48_r8 0.0
y49_r8 0.0
y50_r8 0.0
y51_r8 0.0
SH12_r8 0.0
SL12_r8 -0.0
y52_r8 -0.0
y53_r8 0.0
y54_r8 0.0
y55_r8 -0.0
SH13_r8 0.0
SL13_r8 -0.0
y56_r8 5.550301971496419e-16
y57_r8 1.1100874993535959e-15
y58_r8 5.550301971496419e-16
y59_r8 0.0
SH14_r8 1.6651176965032377e-15
SL14_r8 1.1100874993535959e-15
y60_r8 0.0
y61_r8 0.0
y62_r8 -0.0
y63_r8 -0.0
SH15_r8 -0.0
SL15_r8 -0.0
y0_r9 -0.0
y1_r9 0.0
y2_r9 -0.0
y3_r9 -0.0
SH0_r9 0.0
SL0_r9 -0.0
y4_r9 -0.0
y5_r9 -1.1101086751772772e-16
y6_r9 -0.0
y7_r9 -2.7752187483839896e-17
SH1_r9 1.942890293094024e-16
SL1_r9 -0.0
y8_r9 -8.933825901280557e-17
y9_r9 -2.0469737016526324e-16
y10_r9 -1.6219664500383146e-16
y11_r9 -4.579669976578771e-16
SH2_r9 -7.389922007661198e-16
SL2_r9 -0.0
y12_r9 -0.0
y13_r9 4.995461509726962e-16
y14_r9 0.0
y15_r9 5.411524093418274e-16
SH3_r9 5.411524093418274e-16
SL3_r9 -0.0
y16_r9 -0.0
y17_r9 1.421914208555794e-16
y18_r9 -3.3307791881586127e-16
y19_r9 1.421914208555794e-16
SH4_r9 1.421897267896849e-16
SL4_r9 -0.0
y20_r9 1.0
y21_r9 1.0
y22_r9 -0.0
y23_r9 -0.0
SH5_r9 1.0
SL5_r9 -0.0
y24_r9 -1.3433698597964394e-14
y25_r9 -1.3766765505351941e-14
y26_r9 -0.0
y27_r9 -1.3655743202889425e-14
SH6_r9 -1.3766765505351941e-14
SL6_r9 -1.1796119636642288e-15
y28_r9 -0.0
y29_r9 1.082359028792279e-15
y30_r9 -0.0
y31_r9 1.110114604407908e-15
SH7_r9 1.1100874993535959e-15
SL7_r9 -0.0
y32_r9 -0.0
y33_r9 0.0
y34_r9 -0.0
y35_r9 -0.0
SH8_r9 -0.0
SL8_r9 -0.0
y36_r9 -0.0
y37_r9 0.0
y38_r9 -0.0
y39_r9 -0.0
SH9_r9 0.0
SL9_r9 -0.0
y40_r9 0.0
y41_r9 -0.0
y42_r9 -0.0
y43_r9 0.0
SH10_r9 0.0
SL10_r9 -0.0
y44_r9 4.1626587159865336e-16
y45_r9 4.301572119336239e-16
y46_r9 -0.0
y47_r9 -0.0
SH11_r9 5.550301971496419e-16
SL11_r9 5.550301971496419e-16
y48_r9 -0.0
y49_r9 1.5953357341766394e-16
y50_r9 -0.0
y51_r9 1.7340458496190037e-16
SH12_r9 1.7340458496190037e-16
SL12_r9 0.0
y52_r9 1.0
y53_r9 -0.0
y54_r9 -0.0
y55_r9 1.0
SH13_r9 1.0
SL13_r9 1.0
y56_r9 -1.1275702593849246e-16
y57_r9 -1.1362438767648086e-16
y58_r9 -8.803721640582296e-17
y59_r9 -0.0
SH14_r9 -3.400058012914542e-16
SL14_r9 -0.0
y60_r9 -0.0
y61_r9 0.0
y62_r9 0.0
y63_r9 -0.0
SH15_r9 -0.0
SL15_r9 -0.0
